
Gurobi 9.5.0 (linux64) logging started Sun Dec  3 20:12:51 2023

Set parameter LogFile to value "/lustre1/scratch/348/vsc34888/JointResearch/05.Models/06.Benchmarking/D.Representative_days_based_on_RES_and_Demand/RTS24_mod1_ByStages_nc400/openStarNet_RTS24_mod1_ByStages_nc400.log"
Set parameter Method to value 2
Set parameter MIPFocus to value 1
Set parameter Presolve to value 2
Set parameter RINS to value 100
Set parameter MIPGap to value 0.01
Set parameter Threads to value 36
Set parameter TimeLimit to value 259200
Set parameter IterationLimit to value 760000000
Gurobi Optimizer version 9.5.0 build v9.5.0rc5 (linux64)
Thread count: 36 physical cores, 36 logical processors, using up to 36 threads
Optimize a model with 142358 rows, 96117 columns and 388205 nonzeros
Model fingerprint: 0xdbf9cecc
Variable types: 96096 continuous, 21 integer (21 binary)
Coefficient statistics:
  Matrix range     [2e-03, 3e+02]
  Objective range  [1e+00, 1e+00]
  Bounds range     [3e-05, 3e+00]
  RHS range        [3e-05, 3e+00]
Presolve removed 84795 rows and 48780 columns
Presolve time: 0.65s
Presolved: 57563 rows, 47337 columns, 207912 nonzeros
Variable types: 47316 continuous, 21 integer (21 binary)
Root relaxation presolved: 57563 rows, 47337 columns, 207912 nonzeros

Root barrier log...

Ordering time: 0.01s

Barrier statistics:
 Dense cols : 21
 AA' NZ     : 3.862e+05
 Factor NZ  : 1.125e+06 (roughly 50 MB of memory)
 Factor Ops : 2.579e+07 (less than 1 second per iteration)
 Threads    : 35

                  Objective                Residual
Iter       Primal          Dual         Primal    Dual     Compl     Time
   0   6.64310703e+05 -8.57488364e+07  5.31e+00 3.62e+01  1.80e+03     1s
   1   1.05797661e+05 -2.21701892e+07  7.04e-01 4.93e-09  2.51e+02     1s
   2   4.32136089e+04 -1.22312438e+07  1.87e-01 2.25e-09  1.07e+02     1s
   3   2.13873253e+04 -1.15060079e+06  8.34e-03 7.92e-10  8.88e+00     1s
   4   1.19863126e+04 -1.48681565e+05  4.70e-04 6.87e-11  1.20e+00     1s
   5   3.52023983e+03 -2.55800892e+04  9.05e-05 1.03e-11  2.17e-01     1s
   6   6.37657288e+02 -5.13070414e+03  5.30e-06 2.01e-12  4.30e-02     1s
   7   3.84760349e+02 -1.48456796e+03  1.38e-06 5.65e-13  1.39e-02     1s
   8   2.13790852e+02 -6.01819060e+02  4.63e-07 2.27e-13  6.08e-03     1s
   9   1.48702697e+02 -2.16330978e+02  2.32e-07 2.27e-13  2.72e-03     1s
  10   1.05414560e+02 -7.91805600e+01  1.03e-07 2.27e-13  1.38e-03     1s
  11   8.29849098e+01  1.64571797e+01  5.04e-08 4.55e-13  4.96e-04     1s
  12   7.56607787e+01  4.09575320e+01  3.50e-08 2.27e-13  2.59e-04     1s
  13   6.98133592e+01  4.59832701e+01  2.26e-08 4.55e-13  1.78e-04     1s
  14   6.67789008e+01  4.86635795e+01  1.63e-08 4.55e-13  1.35e-04     1s
  15   6.59833618e+01  4.93719455e+01  1.46e-08 2.27e-13  1.24e-04     2s
  16   6.53464982e+01  5.08254406e+01  1.33e-08 4.55e-13  1.08e-04     2s
  17   6.49244277e+01  5.34498478e+01  1.25e-08 2.27e-13  8.56e-05     2s
  18   6.30090629e+01  5.48938515e+01  9.05e-09 2.27e-13  6.05e-05     2s
  19   6.21143916e+01  5.54546129e+01  6.94e-09 2.27e-13  4.97e-05     2s
  20   6.14714481e+01  5.59303952e+01  5.42e-09 2.27e-13  4.13e-05     2s
  21   6.10000925e+01  5.71785797e+01  4.27e-09 2.27e-13  2.85e-05     2s
  22   6.06953671e+01  5.76926109e+01  3.48e-09 2.27e-13  2.24e-05     2s
  23   6.03309745e+01  5.79054385e+01  2.61e-09 2.27e-13  1.81e-05     2s
  24   5.99621219e+01  5.82179210e+01  1.67e-09 2.27e-13  1.30e-05     2s
  25   5.97473147e+01  5.84338976e+01  1.15e-09 2.27e-13  9.79e-06     2s
  26   5.96083206e+01  5.85208516e+01  8.32e-10 2.27e-13  8.11e-06     2s
  27   5.95585878e+01  5.86740990e+01  7.04e-10 2.27e-13  6.60e-06     2s
  28   5.95134035e+01  5.87474153e+01  5.89e-10 2.27e-13  5.71e-06     2s
  29   5.94921269e+01  5.88758564e+01  5.30e-10 2.27e-13  4.60e-06     2s
  30   5.94099009e+01  5.89790214e+01  3.19e-10 2.27e-13  3.21e-06     2s
  31   5.93703416e+01  5.90108337e+01  2.20e-10 2.27e-13  2.68e-06     2s
  32   5.93592387e+01  5.90788166e+01  1.93e-10 1.14e-13  2.09e-06     2s
  33   5.93484385e+01  5.91382680e+01  1.65e-10 2.27e-13  1.57e-06     2s
  34   5.93297734e+01  5.92204472e+01  1.26e-10 2.27e-13  8.15e-07     2s
  35   5.93092524e+01  5.92511868e+01  4.44e-10 4.55e-13  4.33e-07     2s
  36   5.93065157e+01  5.92518938e+01  5.41e-10 2.27e-13  4.07e-07     2s
  37   5.92981872e+01  5.92599854e+01  4.87e-10 2.27e-13  2.85e-07     2s
  38   5.92928555e+01  5.92713993e+01  4.57e-10 2.27e-13  1.60e-07     2s
  39   5.92902298e+01  5.92741536e+01  3.35e-10 2.27e-13  1.20e-07     2s
  40   5.92881835e+01  5.92766704e+01  2.35e-10 2.27e-13  8.58e-08     2s
  41   5.92872458e+01  5.92780017e+01  1.78e-10 2.27e-13  6.89e-08     2s
  42   5.92859424e+01  5.92809585e+01  4.89e-10 1.14e-13  3.72e-08     2s
  43   5.92849495e+01  5.92835200e+01  1.14e-09 2.27e-13  1.07e-08     2s
  44   5.92847752e+01  5.92837412e+01  8.47e-10 2.27e-13  7.71e-09     2s
  45   5.92843876e+01  5.92839293e+01  8.77e-10 2.27e-13  3.42e-09     2s
  46   5.92842842e+01  5.92840464e+01  6.77e-10 2.27e-13  1.77e-09     2s
  47   5.92842650e+01  5.92841043e+01  9.34e-10 2.27e-13  1.20e-09     2s
  48   5.92842609e+01  5.92841095e+01  9.82e-10 2.27e-13  1.13e-09     2s
  49   5.92842558e+01  5.92841293e+01  1.11e-09 2.27e-13  9.43e-10     2s
  50   5.92842511e+01  5.92841948e+01  1.06e-09 1.09e-12  4.20e-10     2s
  51   5.92842452e+01  5.92842341e+01  7.94e-10 2.27e-13  8.26e-11     2s
  52   5.92842452e+01  5.92842341e+01  1.50e-07 2.27e-13  8.26e-11     3s
  53   5.92842452e+01  5.92842341e+01  1.31e-06 2.27e-13  8.26e-11     3s
  54   5.92842451e+01  5.92842341e+01  3.71e-07 2.27e-13  8.26e-11     3s
  55   5.92842430e+01  5.92842316e+01  1.98e-07 2.27e-13  8.47e-11     3s
  56   5.92842395e+01  5.92842393e+01  1.11e-08 3.41e-13  1.01e-12     3s

Barrier solved model in 56 iterations and 2.75 seconds (2.25 work units)
Optimal objective 5.92842395e+01


Root relaxation: objective 5.928424e+01, 8132 iterations, 2.47 seconds (1.91 work units)

    Nodes    |    Current Node    |     Objective Bounds      |     Work
 Expl Unexpl |  Obj  Depth IntInf | Incumbent    BestBd   Gap | It/Node Time

     0     0   59.28424    0   16          -   59.28424      -     -    4s
H    0     0                     107.8925740   59.28424  45.1%     -    5s
     0     0   60.15163    0   12  107.89257   60.15163  44.2%     -   10s
H    0     0                     104.2641954   60.15163  42.3%     -   11s
H    0     0                      97.9826802   60.17275  38.6%     -   12s
     0     0   60.17275    0   12   97.98268   60.17275  38.6%     -   12s
     0     0   60.44558    0   13   97.98268   60.44558  38.3%     -   14s
     0     0   60.48721    0   13   97.98268   60.48721  38.3%     -   15s
     0     0   60.49378    0   13   97.98268   60.49378  38.3%     -   16s
     0     0   60.49410    0   13   97.98268   60.49410  38.3%     -   16s
     0     0   60.49410    0   13   97.98268   60.49410  38.3%     -   16s
     0     0   60.57110    0   11   97.98268   60.57110  38.2%     -   18s
     0     0   60.60153    0   15   97.98268   60.60153  38.2%     -   20s
     0     0   60.60902    0   14   97.98268   60.60902  38.1%     -   20s
     0     0   60.61149    0   14   97.98268   60.61149  38.1%     -   21s
     0     0   60.61263    0   14   97.98268   60.61263  38.1%     -   21s
     0     0   60.61272    0   14   97.98268   60.61272  38.1%     -   21s
     0     0   61.49430    0   16   97.98268   61.49430  37.2%     -   23s
     0     0   61.49459    0   14   97.98268   61.49459  37.2%     -   24s
     0     0   61.49459    0   13   97.98268   61.49459  37.2%     -   25s
H    0     0                      94.9710794   61.49459  35.2%     -   25s
     0     0   61.49459    0   12   94.97108   61.49459  35.2%     -   25s
     0     0   61.49459    0   12   94.97108   61.49459  35.2%     -   26s
     0     0   61.49459    0   12   94.97108   61.49459  35.2%     -   26s
     0     0   61.49459    0   12   94.97108   61.49459  35.2%     -   30s
H    0     0                      87.2179981   61.49459  29.5%     -   39s
H    0     0                      77.8291921   61.49459  21.0%     -  180s
     0     2   61.49459    0   12   77.82919   61.49459  21.0%     -  182s
     3     8   61.58577    2   14   77.82919   61.49459  21.0%  4115  187s
    15    32   61.84724    4   14   77.82919   61.82861  20.6%  3108  191s
    63    96   62.40262    6   13   77.82919   62.38713  19.8%  2403  205s
    99   124   64.80775    7   14   77.82919   62.40313  19.8%  2274  258s
H  114   124                      77.7876210   62.40313  19.8%  2311  258s
   135   148   64.67332    7   13   77.78762   63.58192  18.3%  2289  263s
   171   174   67.10138    8   13   77.78762   64.20380  17.5%  2285  271s
   259   192   69.02076    9   12   77.78762   64.81280  16.7%  2089  298s
   309   194   71.32626   10   11   77.78762   64.81280  16.7%  2037  302s
   365   209   74.83049   10   11   77.78762   64.81280  16.7%  1980  307s
   420   222   74.40255   11   10   77.78762   64.81280  16.7%  2017  315s
   477   226     cutoff   11        77.78762   64.81280  16.7%  2056  320s
   587   264   70.18789    9   12   77.78762   64.88131  16.6%  2111  396s
   643   261   76.10840   10   11   77.78762   64.88131  16.6%  2066  402s
   733   260     cutoff   11        77.78762   64.88131  16.6%  1993  407s
   814   264     cutoff   11        77.78762   64.88131  16.6%  1975  413s
   906   264     cutoff   10        77.78762   65.43044  15.9%  1955  421s
   995   277   77.34100   10    9   77.78762   65.43044  15.9%  1960  427s
  1089   301     cutoff   12        77.78762   66.18882  14.9%  1940  433s
  1189   306   77.31336   15    6   77.78762   66.18882  14.9%  1926  479s
  1250   315     cutoff   16        77.78762   67.06879  13.8%  1903  486s
  1383   300   74.02715    7    7   77.78762   67.06879  13.8%  1870  492s
  1534   288   77.32893    9    8   77.78762   67.06879  13.8%  1808  499s
  1701   274     cutoff    9        77.78762   67.20056  13.6%  1747  546s
  1781   279   71.21843    9   10   77.78762   67.20056  13.6%  1734  552s
  1975   259   76.78040   11    9   77.78762   67.20056  13.6%  1674  559s
  2179   231     cutoff   12        77.78762   67.20056  13.6%  1609  567s
  2380   203     cutoff   11        77.78762   71.30604  8.33%  1565  574s
  2580   112   76.11961   16    4   77.78762   71.30604  8.33%  1528  580s
  2990    30   76.20073   10   11   77.78762   73.07682  6.06%  1421  589s
  3101    14     cutoff   11        77.78762   75.36246  3.12%  1402  593s
  3154     1     cutoff   12        77.78762   75.48040  2.97%  1388  595s

Cutting planes:
  Gomory: 2
  Implied bound: 216
  MIR: 1111
  Inf proof: 1
  Relax-and-lift: 222

Explored 3178 nodes (4420400 simplex iterations) in 596.16 seconds (1034.59 work units)
Thread count was 36 (of 36 available processors)

Solution count 7: 77.7876 77.8292 87.218 ... 107.893

Optimal solution found (tolerance 1.00e-02)
Best objective 7.778762103486e+01, best bound 7.778762103486e+01, gap 0.0000%

Gurobi 9.5.0 (linux64) logging started Sun Dec  3 20:23:59 2023

Set parameter LogFile to value "/lustre1/scratch/348/vsc34888/JointResearch/05.Models/06.Benchmarking/D.Representative_days_based_on_RES_and_Demand/RTS24_mod1_ByStages_nc400/openStarNet_RTS24_mod1_ByStages_nc400.log"
Set parameter Method to value 2
Set parameter MIPFocus to value 1
Set parameter Presolve to value 2
Set parameter RINS to value 100
Set parameter MIPGap to value 0.01
Set parameter Threads to value 36
Set parameter TimeLimit to value 259200
Set parameter IterationLimit to value 760000000
No parameters matching 'relax_integrality' found
Gurobi Optimizer version 9.5.0 build v9.5.0rc5 (linux64)
Thread count: 36 physical cores, 36 logical processors, using up to 36 threads
Optimize a model with 142358 rows, 96096 columns and 354500 nonzeros
Model fingerprint: 0xbdc0425f
Coefficient statistics:
  Matrix range     [2e-03, 3e+02]
  Objective range  [1e+00, 1e+00]
  Bounds range     [3e-05, 3e+00]
  RHS range        [3e-05, 2e+01]
Presolve removed 119501 rows and 55275 columns
Presolve time: 0.19s
Presolved: 22857 rows, 41536 columns, 102512 nonzeros

Ordering time: 0.00s

Barrier statistics:
 AA' NZ     : 6.239e+04
 Factor NZ  : 2.095e+05 (roughly 23 MB of memory)
 Factor Ops : 2.754e+06 (less than 1 second per iteration)
 Threads    : 36

                  Objective                Residual
Iter       Primal          Dual         Primal    Dual     Compl     Time
   0   7.16707162e+06 -6.11171167e+07  5.16e+01 5.15e+01  1.58e+04     0s
   1   3.98700703e+05 -5.04874145e+07  2.61e+00 2.22e+01  1.38e+03     0s
   2   7.24809569e+04 -1.08853695e+07  4.02e-01 6.39e-01  2.12e+02     0s
   3   3.08752121e+04 -2.37265849e+06  6.75e-02 1.82e-12  3.81e+01     0s
   4   1.98719525e+04 -6.13394453e+05  4.75e-03 1.59e-12  8.82e+00     0s
   5   1.30139893e+04 -1.56352087e+05  3.15e-05 7.96e-13  2.32e+00     0s
   6   5.18516824e+03 -2.69416274e+04  5.53e-06 9.05e-13  4.40e-01     0s
   7   1.05002119e+03 -3.40006285e+03  6.13e-07 5.68e-13  6.10e-02     0s
   8   3.18551818e+02 -8.63827042e+02  1.49e-08 4.55e-13  1.62e-02     0s
   9   2.01812062e+02 -2.59121238e+02  4.19e-09 4.55e-13  6.32e-03     0s
  10   1.36116705e+02 -6.81425895e+01  1.84e-09 4.55e-13  2.80e-03     0s
  11   9.82905921e+01  2.79378843e+01  5.62e-10 4.55e-13  9.64e-04     0s
  12   8.37937321e+01  6.84703976e+01  1.43e-10 6.82e-13  2.10e-04     0s
  13   7.96125588e+01  7.57626306e+01  3.98e-11 2.27e-13  5.28e-05     0s
  14   7.84783056e+01  7.69392926e+01  4.40e-11 4.55e-13  2.11e-05     0s
  15   7.79955495e+01  7.75045816e+01  3.09e-11 4.55e-13  6.73e-06     0s
  16   7.78538533e+01  7.76934478e+01  7.58e-11 2.27e-13  2.20e-06     0s
  17   7.78020222e+01  7.77569170e+01  2.51e-10 4.55e-13  6.18e-07     0s
  18   7.77881300e+01  7.77854251e+01  1.26e-10 6.82e-13  3.71e-08     0s
  19   7.77876627e+01  7.77873364e+01  1.44e-10 2.27e-13  4.47e-09     0s
  20   7.77876211e+01  7.77876207e+01  1.11e-10 4.55e-13  4.55e-12     0s
  21   7.77876210e+01  7.77876210e+01  1.15e-11 2.27e-13  8.68e-18     1s

Barrier solved model in 21 iterations and 0.51 seconds (0.45 work units)
Optimal objective 7.77876210e+01

Crossover log...

    5248 DPushes remaining with DInf 0.0000000e+00                 1s
       0 DPushes remaining with DInf 0.0000000e+00                 1s

    1265 PPushes remaining with PInf 0.0000000e+00                 1s
       0 PPushes remaining with PInf 0.0000000e+00                 1s

  Push phase complete: Pinf 0.0000000e+00, Dinf 2.3775105e-13      1s

Iteration    Objective       Primal Inf.    Dual Inf.      Time
    1428    7.7787621e+01   0.000000e+00   0.000000e+00      1s

Use crossover to convert LP symmetric solution to basic solution...
Crossover log...

       0 DPushes remaining with DInf 0.0000000e+00                 1s

     973 PPushes remaining with PInf 0.0000000e+00                 1s
       0 PPushes remaining with PInf 0.0000000e+00                 1s

  Push phase complete: Pinf 0.0000000e+00, Dinf 1.6850813e-13      1s

Iteration    Objective       Primal Inf.    Dual Inf.      Time
    2549    7.7787621e+01   0.000000e+00   0.000000e+00      1s

Solved in 2549 iterations and 0.81 seconds (0.62 work units)
Optimal objective  7.778762103e+01
